n_machines = 5;
n_resources = 8;
n_jobs = 19;
horizon = 9326;
LB = 2449;
n_jobs_per_resource = [1, 1, 2, 4, 1, 3, 3, 4];
duration = [566, 239, 401, 142, 851, 845, 481, 272, 450, 462, 160, 209, 934, 851, 577, 332, 247, 787, 520]